Cars = 1..200;
Options = 1..5;
Classes = 1..26;
sequenceMinCapacity = [0, 0, 0, 0, 0];
sequenceMaxCapacity = [1, 2, 1, 2, 1];
sequenceSize = [2, 3, 3, 5, 5];
numOrdered = [4, 6, 59, 10, 1, 13, 23, 3, 11, 6, 1, 7, 2, 1, 1, 5, 2, 1, 14, 17, 2, 2, 1, 1, 1, 6];
classHasOption = [| true, false,  true, false, false
                  | true, false, false,  true, false
                  |false,  true, false, false, false
                  |false,  true, false,  true, false
                  | true, false, false,  true,  true
                  | true,  true, false, false, false
                  |false, false,  true, false, false
                  | true,  true,  true,  true, false
                  |false, false, false, false,  true
                  |false,  true,  true, false, false
                  | true, false,  true, false,  true
                  | true,  true, false,  true, false
                  |false, false,  true, false,  true
                  | true,  true, false, false,  true
                  | true,  true,  true, false,  true
                  |false, false,  true,  true, false
                  | true, false, false, false,  true
                  |false, false, false,  true,  true
                  |false, false, false,  true, false
                  | true, false, false, false, false
                  |false,  true,  true,  true, false
                  | true, false,  true,  true, false
                  | true,  true, false,  true,  true
                  | true,  true,  true, false, false
                  |false, false,  true, false,  true
                  |false,  true, false, false, false|];
optionOrdering = [3, 1, 2, 5, 4];
